#GIUSEPPE RICCIARDI, ANTONIO SIGNORELLI.
#LAUREA MAGISTRALE INGEGNGERIA INFORMATICA, UNIVERSITA' DEGLI STUDI DI PARMA 2022/2023.

set RETTANGOLI := 1 2 3 4; 
param B := 10; #base contenitore
param l := #lunghezze rettangoli
1 3
2 4
3 7
4 2;
param h := #altezze rettangoli
1 4
2 2
3 6
4 5;
